11
0 27 93 77 54 89 50 17 44 47 36 
29 0 92 14 40 31 21 46 95 39 96 
32 65 0 37 7 69 71 64 95 61 36 
82 91 44 0 75 54 17 44 3 82 57 
83 94 56 43 0 95 50 71 82 75 57 
1 58 51 96 92 0 66 71 18 30 87 
88 5 97 91 79 46 0 3 5 22 81 
65 4 32 4 94 38 85 0 4 31 35 
46 63 52 62 94 80 21 11 0 45 72 
82 22 71 71 80 59 9 98 73 0 99 
12 6 30 81 30 52 71 16 28 30 0 
